p cnf 392 3200
9 0
362 0
67 0
60 0
349 0
214 0
231 0
-1 -345 0
-2 -346 0
-3 -347 0
-4 -348 0
-5 -349 0
-6 -350 0
-7 -351 0
-8 -352 0
-1 -65 0
-2 -66 0
-3 -67 0
-4 -68 0
-5 -69 0
-6 -70 0
-7 -71 0
-8 -72 0
-1 -57 0
-2 -58 0
-3 -59 0
-4 -60 0
-5 -61 0
-6 -62 0
-7 -63 0
-8 -64 0
-1 -9 0
-2 -10 0
-3 -11 0
-4 -12 0
-5 -13 0
-6 -14 0
-7 -15 0
-8 -16 0
-1 -265 0
-2 -266 0
-3 -267 0
-4 -268 0
-5 -269 0
-6 -270 0
-7 -271 0
-8 -272 0
-1 -33 0
-2 -34 0
-3 -35 0
-4 -36 0
-5 -37 0
-6 -38 0
-7 -39 0
-8 -40 0
-1 -137 0
-2 -138 0
-3 -139 0
-4 -140 0
-5 -141 0
-6 -142 0
-7 -143 0
-8 -144 0
-1 -385 0
-2 -386 0
-3 -387 0
-4 -388 0
-5 -389 0
-6 -390 0
-7 -391 0
-8 -392 0
-1 -25 0
-2 -26 0
-3 -27 0
-4 -28 0
-5 -29 0
-6 -30 0
-7 -31 0
-8 -32 0
-1 -105 0
-2 -106 0
-3 -107 0
-4 -108 0
-5 -109 0
-6 -110 0
-7 -111 0
-8 -112 0
-1 -321 0
-2 -322 0
-3 -323 0
-4 -324 0
-5 -325 0
-6 -326 0
-7 -327 0
-8 -328 0
-1 -233 0
-2 -234 0
-3 -235 0
-4 -236 0
-5 -237 0
-6 -238 0
-7 -239 0
-8 -240 0
-1 -129 0
-2 -130 0
-3 -131 0
-4 -132 0
-5 -133 0
-6 -134 0
-7 -135 0
-8 -136 0
-1 -377 0
-2 -378 0
-3 -379 0
-4 -380 0
-5 -381 0
-6 -382 0
-7 -383 0
-8 -384 0
-1 -297 0
-2 -298 0
-3 -299 0
-4 -300 0
-5 -301 0
-6 -302 0
-7 -303 0
-8 -304 0
-1 -209 0
-2 -210 0
-3 -211 0
-4 -212 0
-5 -213 0
-6 -214 0
-7 -215 0
-8 -216 0
-9 -225 0
-10 -226 0
-11 -227 0
-12 -228 0
-13 -229 0
-14 -230 0
-15 -231 0
-16 -232 0
-9 -345 0
-10 -346 0
-11 -347 0
-12 -348 0
-13 -349 0
-14 -350 0
-15 -351 0
-16 -352 0
-9 -65 0
-10 -66 0
-11 -67 0
-12 -68 0
-13 -69 0
-14 -70 0
-15 -71 0
-16 -72 0
-9 -57 0
-10 -58 0
-11 -59 0
-12 -60 0
-13 -61 0
-14 -62 0
-15 -63 0
-16 -64 0
-9 -129 0
-10 -130 0
-11 -131 0
-12 -132 0
-13 -133 0
-14 -134 0
-15 -135 0
-16 -136 0
-9 -209 0
-10 -210 0
-11 -211 0
-12 -212 0
-13 -213 0
-14 -214 0
-15 -215 0
-16 -216 0
-9 -265 0
-10 -266 0
-11 -267 0
-12 -268 0
-13 -269 0
-14 -270 0
-15 -271 0
-16 -272 0
-9 -385 0
-10 -386 0
-11 -387 0
-12 -388 0
-13 -389 0
-14 -390 0
-15 -391 0
-16 -392 0
-9 -321 0
-10 -322 0
-11 -323 0
-12 -324 0
-13 -325 0
-14 -326 0
-15 -327 0
-16 -328 0
-9 -233 0
-10 -234 0
-11 -235 0
-12 -236 0
-13 -237 0
-14 -238 0
-15 -239 0
-16 -240 0
-9 -377 0
-10 -378 0
-11 -379 0
-12 -380 0
-13 -381 0
-14 -382 0
-15 -383 0
-16 -384 0
-9 -297 0
-10 -298 0
-11 -299 0
-12 -300 0
-13 -301 0
-14 -302 0
-15 -303 0
-16 -304 0
-9 -361 0
-10 -362 0
-11 -363 0
-12 -364 0
-13 -365 0
-14 -366 0
-15 -367 0
-16 -368 0
-9 -41 0
-10 -42 0
-11 -43 0
-12 -44 0
-13 -45 0
-14 -46 0
-15 -47 0
-16 -48 0
-17 -289 0
-18 -290 0
-19 -291 0
-20 -292 0
-21 -293 0
-22 -294 0
-23 -295 0
-24 -296 0
-17 -57 0
-18 -58 0
-19 -59 0
-20 -60 0
-21 -61 0
-22 -62 0
-23 -63 0
-24 -64 0
-17 -353 0
-18 -354 0
-19 -355 0
-20 -356 0
-21 -357 0
-22 -358 0
-23 -359 0
-24 -360 0
-17 -113 0
-18 -114 0
-19 -115 0
-20 -116 0
-21 -117 0
-22 -118 0
-23 -119 0
-24 -120 0
-17 -193 0
-18 -194 0
-19 -195 0
-20 -196 0
-21 -197 0
-22 -198 0
-23 -199 0
-24 -200 0
-17 -249 0
-18 -250 0
-19 -251 0
-20 -252 0
-21 -253 0
-22 -254 0
-23 -255 0
-24 -256 0
-17 -369 0
-18 -370 0
-19 -371 0
-20 -372 0
-21 -373 0
-22 -374 0
-23 -375 0
-24 -376 0
-17 -297 0
-18 -298 0
-19 -299 0
-20 -300 0
-21 -301 0
-22 -302 0
-23 -303 0
-24 -304 0
-17 -121 0
-18 -122 0
-19 -123 0
-20 -124 0
-21 -125 0
-22 -126 0
-23 -127 0
-24 -128 0
-17 -361 0
-18 -362 0
-19 -363 0
-20 -364 0
-21 -365 0
-22 -366 0
-23 -367 0
-24 -368 0
-17 -145 0
-18 -146 0
-19 -147 0
-20 -148 0
-21 -149 0
-22 -150 0
-23 -151 0
-24 -152 0
-17 -177 0
-18 -178 0
-19 -179 0
-20 -180 0
-21 -181 0
-22 -182 0
-23 -183 0
-24 -184 0
-17 -161 0
-18 -162 0
-19 -163 0
-20 -164 0
-21 -165 0
-22 -166 0
-23 -167 0
-24 -168 0
-17 -273 0
-18 -274 0
-19 -275 0
-20 -276 0
-21 -277 0
-22 -278 0
-23 -279 0
-24 -280 0
-17 -241 0
-18 -242 0
-19 -243 0
-20 -244 0
-21 -245 0
-22 -246 0
-23 -247 0
-24 -248 0
-17 -281 0
-18 -282 0
-19 -283 0
-20 -284 0
-21 -285 0
-22 -286 0
-23 -287 0
-24 -288 0
-25 -217 0
-26 -218 0
-27 -219 0
-28 -220 0
-29 -221 0
-30 -222 0
-31 -223 0
-32 -224 0
-25 -97 0
-26 -98 0
-27 -99 0
-28 -100 0
-29 -101 0
-30 -102 0
-31 -103 0
-32 -104 0
-25 -265 0
-26 -266 0
-27 -267 0
-28 -268 0
-29 -269 0
-30 -270 0
-31 -271 0
-32 -272 0
-25 -33 0
-26 -34 0
-27 -35 0
-28 -36 0
-29 -37 0
-30 -38 0
-31 -39 0
-32 -40 0
-25 -137 0
-26 -138 0
-27 -139 0
-28 -140 0
-29 -141 0
-30 -142 0
-31 -143 0
-32 -144 0
-25 -385 0
-26 -386 0
-27 -387 0
-28 -388 0
-29 -389 0
-30 -390 0
-31 -391 0
-32 -392 0
-25 -105 0
-26 -106 0
-27 -107 0
-28 -108 0
-29 -109 0
-30 -110 0
-31 -111 0
-32 -112 0
-25 -257 0
-26 -258 0
-27 -259 0
-28 -260 0
-29 -261 0
-30 -262 0
-31 -263 0
-32 -264 0
-25 -201 0
-26 -202 0
-27 -203 0
-28 -204 0
-29 -205 0
-30 -206 0
-31 -207 0
-32 -208 0
-25 -321 0
-26 -322 0
-27 -323 0
-28 -324 0
-29 -325 0
-30 -326 0
-31 -327 0
-32 -328 0
-25 -73 0
-26 -74 0
-27 -75 0
-28 -76 0
-29 -77 0
-30 -78 0
-31 -79 0
-32 -80 0
-25 -113 0
-26 -114 0
-27 -115 0
-28 -116 0
-29 -117 0
-30 -118 0
-31 -119 0
-32 -120 0
-25 -297 0
-26 -298 0
-27 -299 0
-28 -300 0
-29 -301 0
-30 -302 0
-31 -303 0
-32 -304 0
-25 -121 0
-26 -122 0
-27 -123 0
-28 -124 0
-29 -125 0
-30 -126 0
-31 -127 0
-32 -128 0
-33 -217 0
-34 -218 0
-35 -219 0
-36 -220 0
-37 -221 0
-38 -222 0
-39 -223 0
-40 -224 0
-33 -97 0
-34 -98 0
-35 -99 0
-36 -100 0
-37 -101 0
-38 -102 0
-39 -103 0
-40 -104 0
-33 -305 0
-34 -306 0
-35 -307 0
-36 -308 0
-37 -309 0
-38 -310 0
-39 -311 0
-40 -312 0
-33 -265 0
-34 -266 0
-35 -267 0
-36 -268 0
-37 -269 0
-38 -270 0
-39 -271 0
-40 -272 0
-33 -137 0
-34 -138 0
-35 -139 0
-36 -140 0
-37 -141 0
-38 -142 0
-39 -143 0
-40 -144 0
-33 -385 0
-34 -386 0
-35 -387 0
-36 -388 0
-37 -389 0
-38 -390 0
-39 -391 0
-40 -392 0
-33 -257 0
-34 -258 0
-35 -259 0
-36 -260 0
-37 -261 0
-38 -262 0
-39 -263 0
-40 -264 0
-33 -105 0
-34 -106 0
-35 -107 0
-36 -108 0
-37 -109 0
-38 -110 0
-39 -111 0
-40 -112 0
-33 -321 0
-34 -322 0
-35 -323 0
-36 -324 0
-37 -325 0
-38 -326 0
-39 -327 0
-40 -328 0
-33 -89 0
-34 -90 0
-35 -91 0
-36 -92 0
-37 -93 0
-38 -94 0
-39 -95 0
-40 -96 0
-33 -233 0
-34 -234 0
-35 -235 0
-36 -236 0
-37 -237 0
-38 -238 0
-39 -239 0
-40 -240 0
-33 -129 0
-34 -130 0
-35 -131 0
-36 -132 0
-37 -133 0
-38 -134 0
-39 -135 0
-40 -136 0
-33 -153 0
-34 -154 0
-35 -155 0
-36 -156 0
-37 -157 0
-38 -158 0
-39 -159 0
-40 -160 0
-33 -73 0
-34 -74 0
-35 -75 0
-36 -76 0
-37 -77 0
-38 -78 0
-39 -79 0
-40 -80 0
-33 -201 0
-34 -202 0
-35 -203 0
-36 -204 0
-37 -205 0
-38 -206 0
-39 -207 0
-40 -208 0
-41 -289 0
-42 -290 0
-43 -291 0
-44 -292 0
-45 -293 0
-46 -294 0
-47 -295 0
-48 -296 0
-41 -225 0
-42 -226 0
-43 -227 0
-44 -228 0
-45 -229 0
-46 -230 0
-47 -231 0
-48 -232 0
-41 -185 0
-42 -186 0
-43 -187 0
-44 -188 0
-45 -189 0
-46 -190 0
-47 -191 0
-48 -192 0
-41 -65 0
-42 -66 0
-43 -67 0
-44 -68 0
-45 -69 0
-46 -70 0
-47 -71 0
-48 -72 0
-41 -89 0
-42 -90 0
-43 -91 0
-44 -92 0
-45 -93 0
-46 -94 0
-47 -95 0
-48 -96 0
-41 -233 0
-42 -234 0
-43 -235 0
-44 -236 0
-45 -237 0
-46 -238 0
-47 -239 0
-48 -240 0
-41 -129 0
-42 -130 0
-43 -131 0
-44 -132 0
-45 -133 0
-46 -134 0
-47 -135 0
-48 -136 0
-41 -377 0
-42 -378 0
-43 -379 0
-44 -380 0
-45 -381 0
-46 -382 0
-47 -383 0
-48 -384 0
-41 -49 0
-42 -50 0
-43 -51 0
-44 -52 0
-45 -53 0
-46 -54 0
-47 -55 0
-48 -56 0
-41 -361 0
-42 -362 0
-43 -363 0
-44 -364 0
-45 -365 0
-46 -366 0
-47 -367 0
-48 -368 0
-41 -209 0
-42 -210 0
-43 -211 0
-44 -212 0
-45 -213 0
-46 -214 0
-47 -215 0
-48 -216 0
-41 -169 0
-42 -170 0
-43 -171 0
-44 -172 0
-45 -173 0
-46 -174 0
-47 -175 0
-48 -176 0
-41 -81 0
-42 -82 0
-43 -83 0
-44 -84 0
-45 -85 0
-46 -86 0
-47 -87 0
-48 -88 0
-41 -281 0
-42 -282 0
-43 -283 0
-44 -284 0
-45 -285 0
-46 -286 0
-47 -287 0
-48 -288 0
-49 -217 0
-50 -218 0
-51 -219 0
-52 -220 0
-53 -221 0
-54 -222 0
-55 -223 0
-56 -224 0
-49 -97 0
-50 -98 0
-51 -99 0
-52 -100 0
-53 -101 0
-54 -102 0
-55 -103 0
-56 -104 0
-49 -305 0
-50 -306 0
-51 -307 0
-52 -308 0
-53 -309 0
-54 -310 0
-55 -311 0
-56 -312 0
-49 -185 0
-50 -186 0
-51 -187 0
-52 -188 0
-53 -189 0
-54 -190 0
-55 -191 0
-56 -192 0
-49 -337 0
-50 -338 0
-51 -339 0
-52 -340 0
-53 -341 0
-54 -342 0
-55 -343 0
-56 -344 0
-49 -137 0
-50 -138 0
-51 -139 0
-52 -140 0
-53 -141 0
-54 -142 0
-55 -143 0
-56 -144 0
-49 -89 0
-50 -90 0
-51 -91 0
-52 -92 0
-53 -93 0
-54 -94 0
-55 -95 0
-56 -96 0
-49 -233 0
-50 -234 0
-51 -235 0
-52 -236 0
-53 -237 0
-54 -238 0
-55 -239 0
-56 -240 0
-49 -377 0
-50 -378 0
-51 -379 0
-52 -380 0
-53 -381 0
-54 -382 0
-55 -383 0
-56 -384 0
-49 -153 0
-50 -154 0
-51 -155 0
-52 -156 0
-53 -157 0
-54 -158 0
-55 -159 0
-56 -160 0
-49 -169 0
-50 -170 0
-51 -171 0
-52 -172 0
-53 -173 0
-54 -174 0
-55 -175 0
-56 -176 0
-49 -81 0
-50 -82 0
-51 -83 0
-52 -84 0
-53 -85 0
-54 -86 0
-55 -87 0
-56 -88 0
-49 -329 0
-50 -330 0
-51 -331 0
-52 -332 0
-53 -333 0
-54 -334 0
-55 -335 0
-56 -336 0
-49 -249 0
-50 -250 0
-51 -251 0
-52 -252 0
-53 -253 0
-54 -254 0
-55 -255 0
-56 -256 0
-49 -281 0
-50 -282 0
-51 -283 0
-52 -284 0
-53 -285 0
-54 -286 0
-55 -287 0
-56 -288 0
-57 -289 0
-58 -290 0
-59 -291 0
-60 -292 0
-61 -293 0
-62 -294 0
-63 -295 0
-64 -296 0
-57 -225 0
-58 -226 0
-59 -227 0
-60 -228 0
-61 -229 0
-62 -230 0
-63 -231 0
-64 -232 0
-57 -345 0
-58 -346 0
-59 -347 0
-60 -348 0
-61 -349 0
-62 -350 0
-63 -351 0
-64 -352 0
-57 -65 0
-58 -66 0
-59 -67 0
-60 -68 0
-61 -69 0
-62 -70 0
-63 -71 0
-64 -72 0
-57 -297 0
-58 -298 0
-59 -299 0
-60 -300 0
-61 -301 0
-62 -302 0
-63 -303 0
-64 -304 0
-57 -361 0
-58 -362 0
-59 -363 0
-60 -364 0
-61 -365 0
-62 -366 0
-63 -367 0
-64 -368 0
-57 -177 0
-58 -178 0
-59 -179 0
-60 -180 0
-61 -181 0
-62 -182 0
-63 -183 0
-64 -184 0
-57 -273 0
-58 -274 0
-59 -275 0
-60 -276 0
-61 -277 0
-62 -278 0
-63 -279 0
-64 -280 0
-57 -105 0
-58 -106 0
-59 -107 0
-60 -108 0
-61 -109 0
-62 -110 0
-63 -111 0
-64 -112 0
-57 -321 0
-58 -322 0
-59 -323 0
-60 -324 0
-61 -325 0
-62 -326 0
-63 -327 0
-64 -328 0
-57 -121 0
-58 -122 0
-59 -123 0
-60 -124 0
-61 -125 0
-62 -126 0
-63 -127 0
-64 -128 0
-57 -145 0
-58 -146 0
-59 -147 0
-60 -148 0
-61 -149 0
-62 -150 0
-63 -151 0
-64 -152 0
-57 -209 0
-58 -210 0
-59 -211 0
-60 -212 0
-61 -213 0
-62 -214 0
-63 -215 0
-64 -216 0
-57 -161 0
-58 -162 0
-59 -163 0
-60 -164 0
-61 -165 0
-62 -166 0
-63 -167 0
-64 -168 0
-65 -289 0
-66 -290 0
-67 -291 0
-68 -292 0
-69 -293 0
-70 -294 0
-71 -295 0
-72 -296 0
-65 -225 0
-66 -226 0
-67 -227 0
-68 -228 0
-69 -229 0
-70 -230 0
-71 -231 0
-72 -232 0
-65 -185 0
-66 -186 0
-67 -187 0
-68 -188 0
-69 -189 0
-70 -190 0
-71 -191 0
-72 -192 0
-65 -345 0
-66 -346 0
-67 -347 0
-68 -348 0
-69 -349 0
-70 -350 0
-71 -351 0
-72 -352 0
-65 -361 0
-66 -362 0
-67 -363 0
-68 -364 0
-69 -365 0
-70 -366 0
-71 -367 0
-72 -368 0
-65 -209 0
-66 -210 0
-67 -211 0
-68 -212 0
-69 -213 0
-70 -214 0
-71 -215 0
-72 -216 0
-65 -321 0
-66 -322 0
-67 -323 0
-68 -324 0
-69 -325 0
-70 -326 0
-71 -327 0
-72 -328 0
-65 -129 0
-66 -130 0
-67 -131 0
-68 -132 0
-69 -133 0
-70 -134 0
-71 -135 0
-72 -136 0
-65 -377 0
-66 -378 0
-67 -379 0
-68 -380 0
-69 -381 0
-70 -382 0
-71 -383 0
-72 -384 0
-65 -297 0
-66 -298 0
-67 -299 0
-68 -300 0
-69 -301 0
-70 -302 0
-71 -303 0
-72 -304 0
-65 -145 0
-66 -146 0
-67 -147 0
-68 -148 0
-69 -149 0
-70 -150 0
-71 -151 0
-72 -152 0
-65 -177 0
-66 -178 0
-67 -179 0
-68 -180 0
-69 -181 0
-70 -182 0
-71 -183 0
-72 -184 0
-65 -273 0
-66 -274 0
-67 -275 0
-68 -276 0
-69 -277 0
-70 -278 0
-71 -279 0
-72 -280 0
-73 -217 0
-74 -218 0
-75 -219 0
-76 -220 0
-77 -221 0
-78 -222 0
-79 -223 0
-80 -224 0
-73 -97 0
-74 -98 0
-75 -99 0
-76 -100 0
-77 -101 0
-78 -102 0
-79 -103 0
-80 -104 0
-73 -305 0
-74 -306 0
-75 -307 0
-76 -308 0
-77 -309 0
-78 -310 0
-79 -311 0
-80 -312 0
-73 -337 0
-74 -338 0
-75 -339 0
-76 -340 0
-77 -341 0
-78 -342 0
-79 -343 0
-80 -344 0
-73 -105 0
-74 -106 0
-75 -107 0
-76 -108 0
-77 -109 0
-78 -110 0
-79 -111 0
-80 -112 0
-73 -313 0
-74 -314 0
-75 -315 0
-76 -316 0
-77 -317 0
-78 -318 0
-79 -319 0
-80 -320 0
-73 -353 0
-74 -354 0
-75 -355 0
-76 -356 0
-77 -357 0
-78 -358 0
-79 -359 0
-80 -360 0
-73 -113 0
-74 -114 0
-75 -115 0
-76 -116 0
-77 -117 0
-78 -118 0
-79 -119 0
-80 -120 0
-73 -257 0
-74 -258 0
-75 -259 0
-76 -260 0
-77 -261 0
-78 -262 0
-79 -263 0
-80 -264 0
-73 -201 0
-74 -202 0
-75 -203 0
-76 -204 0
-77 -205 0
-78 -206 0
-79 -207 0
-80 -208 0
-73 -193 0
-74 -194 0
-75 -195 0
-76 -196 0
-77 -197 0
-78 -198 0
-79 -199 0
-80 -200 0
-73 -369 0
-74 -370 0
-75 -371 0
-76 -372 0
-77 -373 0
-78 -374 0
-79 -375 0
-80 -376 0
-73 -121 0
-74 -122 0
-75 -123 0
-76 -124 0
-77 -125 0
-78 -126 0
-79 -127 0
-80 -128 0
-73 -161 0
-74 -162 0
-75 -163 0
-76 -164 0
-77 -165 0
-78 -166 0
-79 -167 0
-80 -168 0
-81 -305 0
-82 -306 0
-83 -307 0
-84 -308 0
-85 -309 0
-86 -310 0
-87 -311 0
-88 -312 0
-81 -289 0
-82 -290 0
-83 -291 0
-84 -292 0
-85 -293 0
-86 -294 0
-87 -295 0
-88 -296 0
-81 -225 0
-82 -226 0
-83 -227 0
-84 -228 0
-85 -229 0
-86 -230 0
-87 -231 0
-88 -232 0
-81 -185 0
-82 -186 0
-83 -187 0
-84 -188 0
-85 -189 0
-86 -190 0
-87 -191 0
-88 -192 0
-81 -337 0
-82 -338 0
-83 -339 0
-84 -340 0
-85 -341 0
-86 -342 0
-87 -343 0
-88 -344 0
-81 -89 0
-82 -90 0
-83 -91 0
-84 -92 0
-85 -93 0
-86 -94 0
-87 -95 0
-88 -96 0
-81 -377 0
-82 -378 0
-83 -379 0
-84 -380 0
-85 -381 0
-86 -382 0
-87 -383 0
-88 -384 0
-81 -153 0
-82 -154 0
-83 -155 0
-84 -156 0
-85 -157 0
-86 -158 0
-87 -159 0
-88 -160 0
-81 -193 0
-82 -194 0
-83 -195 0
-84 -196 0
-85 -197 0
-86 -198 0
-87 -199 0
-88 -200 0
-81 -249 0
-82 -250 0
-83 -251 0
-84 -252 0
-85 -253 0
-86 -254 0
-87 -255 0
-88 -256 0
-81 -145 0
-82 -146 0
-83 -147 0
-84 -148 0
-85 -149 0
-86 -150 0
-87 -151 0
-88 -152 0
-81 -169 0
-82 -170 0
-83 -171 0
-84 -172 0
-85 -173 0
-86 -174 0
-87 -175 0
-88 -176 0
-81 -281 0
-82 -282 0
-83 -283 0
-84 -284 0
-85 -285 0
-86 -286 0
-87 -287 0
-88 -288 0
-81 -329 0
-82 -330 0
-83 -331 0
-84 -332 0
-85 -333 0
-86 -334 0
-87 -335 0
-88 -336 0
-81 -241 0
-82 -242 0
-83 -243 0
-84 -244 0
-85 -245 0
-86 -246 0
-87 -247 0
-88 -248 0
-89 -217 0
-90 -218 0
-91 -219 0
-92 -220 0
-93 -221 0
-94 -222 0
-95 -223 0
-96 -224 0
-89 -305 0
-90 -306 0
-91 -307 0
-92 -308 0
-93 -309 0
-94 -310 0
-95 -311 0
-96 -312 0
-89 -185 0
-90 -186 0
-91 -187 0
-92 -188 0
-93 -189 0
-94 -190 0
-95 -191 0
-96 -192 0
-89 -265 0
-90 -266 0
-91 -267 0
-92 -268 0
-93 -269 0
-94 -270 0
-95 -271 0
-96 -272 0
-89 -137 0
-90 -138 0
-91 -139 0
-92 -140 0
-93 -141 0
-94 -142 0
-95 -143 0
-96 -144 0
-89 -233 0
-90 -234 0
-91 -235 0
-92 -236 0
-93 -237 0
-94 -238 0
-95 -239 0
-96 -240 0
-89 -377 0
-90 -378 0
-91 -379 0
-92 -380 0
-93 -381 0
-94 -382 0
-95 -383 0
-96 -384 0
-89 -153 0
-90 -154 0
-91 -155 0
-92 -156 0
-93 -157 0
-94 -158 0
-95 -159 0
-96 -160 0
-89 -169 0
-90 -170 0
-91 -171 0
-92 -172 0
-93 -173 0
-94 -174 0
-95 -175 0
-96 -176 0
-89 -129 0
-90 -130 0
-91 -131 0
-92 -132 0
-93 -133 0
-94 -134 0
-95 -135 0
-96 -136 0
-89 -209 0
-90 -210 0
-91 -211 0
-92 -212 0
-93 -213 0
-94 -214 0
-95 -215 0
-96 -216 0
-89 -329 0
-90 -330 0
-91 -331 0
-92 -332 0
-93 -333 0
-94 -334 0
-95 -335 0
-96 -336 0
-97 -217 0
-98 -218 0
-99 -219 0
-100 -220 0
-101 -221 0
-102 -222 0
-103 -223 0
-104 -224 0
-97 -305 0
-98 -306 0
-99 -307 0
-100 -308 0
-101 -309 0
-102 -310 0
-103 -311 0
-104 -312 0
-97 -337 0
-98 -338 0
-99 -339 0
-100 -340 0
-101 -341 0
-102 -342 0
-103 -343 0
-104 -344 0
-97 -313 0
-98 -314 0
-99 -315 0
-100 -316 0
-101 -317 0
-102 -318 0
-103 -319 0
-104 -320 0
-97 -257 0
-98 -258 0
-99 -259 0
-100 -260 0
-101 -261 0
-102 -262 0
-103 -263 0
-104 -264 0
-97 -137 0
-98 -138 0
-99 -139 0
-100 -140 0
-101 -141 0
-102 -142 0
-103 -143 0
-104 -144 0
-97 -153 0
-98 -154 0
-99 -155 0
-100 -156 0
-101 -157 0
-102 -158 0
-103 -159 0
-104 -160 0
-97 -353 0
-98 -354 0
-99 -355 0
-100 -356 0
-101 -357 0
-102 -358 0
-103 -359 0
-104 -360 0
-97 -113 0
-98 -114 0
-99 -115 0
-100 -116 0
-101 -117 0
-102 -118 0
-103 -119 0
-104 -120 0
-97 -193 0
-98 -194 0
-99 -195 0
-100 -196 0
-101 -197 0
-102 -198 0
-103 -199 0
-104 -200 0
-97 -249 0
-98 -250 0
-99 -251 0
-100 -252 0
-101 -253 0
-102 -254 0
-103 -255 0
-104 -256 0
-97 -201 0
-98 -202 0
-99 -203 0
-100 -204 0
-101 -205 0
-102 -206 0
-103 -207 0
-104 -208 0
-97 -329 0
-98 -330 0
-99 -331 0
-100 -332 0
-101 -333 0
-102 -334 0
-103 -335 0
-104 -336 0
-105 -345 0
-106 -346 0
-107 -347 0
-108 -348 0
-109 -349 0
-110 -350 0
-111 -351 0
-112 -352 0
-105 -265 0
-106 -266 0
-107 -267 0
-108 -268 0
-109 -269 0
-110 -270 0
-111 -271 0
-112 -272 0
-105 -385 0
-106 -386 0
-107 -387 0
-108 -388 0
-109 -389 0
-110 -390 0
-111 -391 0
-112 -392 0
-105 -321 0
-106 -322 0
-107 -323 0
-108 -324 0
-109 -325 0
-110 -326 0
-111 -327 0
-112 -328 0
-105 -297 0
-106 -298 0
-107 -299 0
-108 -300 0
-109 -301 0
-110 -302 0
-111 -303 0
-112 -304 0
-105 -121 0
-106 -122 0
-107 -123 0
-108 -124 0
-109 -125 0
-110 -126 0
-111 -127 0
-112 -128 0
-105 -201 0
-106 -202 0
-107 -203 0
-108 -204 0
-109 -205 0
-110 -206 0
-111 -207 0
-112 -208 0
-105 -113 0
-106 -114 0
-107 -115 0
-108 -116 0
-109 -117 0
-110 -118 0
-111 -119 0
-112 -120 0
-105 -257 0
-106 -258 0
-107 -259 0
-108 -260 0
-109 -261 0
-110 -262 0
-111 -263 0
-112 -264 0
-105 -177 0
-106 -178 0
-107 -179 0
-108 -180 0
-109 -181 0
-110 -182 0
-111 -183 0
-112 -184 0
-105 -161 0
-106 -162 0
-107 -163 0
-108 -164 0
-109 -165 0
-110 -166 0
-111 -167 0
-112 -168 0
-113 -313 0
-114 -314 0
-115 -315 0
-116 -316 0
-117 -317 0
-118 -318 0
-119 -319 0
-120 -320 0
-113 -353 0
-114 -354 0
-115 -355 0
-116 -356 0
-117 -357 0
-118 -358 0
-119 -359 0
-120 -360 0
-113 -161 0
-114 -162 0
-115 -163 0
-116 -164 0
-117 -165 0
-118 -166 0
-119 -167 0
-120 -168 0
-113 -121 0
-114 -122 0
-115 -123 0
-116 -124 0
-117 -125 0
-118 -126 0
-119 -127 0
-120 -128 0
-113 -201 0
-114 -202 0
-115 -203 0
-116 -204 0
-117 -205 0
-118 -206 0
-119 -207 0
-120 -208 0
-113 -257 0
-114 -258 0
-115 -259 0
-116 -260 0
-117 -261 0
-118 -262 0
-119 -263 0
-120 -264 0
-113 -193 0
-114 -194 0
-115 -195 0
-116 -196 0
-117 -197 0
-118 -198 0
-119 -199 0
-120 -200 0
-113 -369 0
-114 -370 0
-115 -371 0
-116 -372 0
-117 -373 0
-118 -374 0
-119 -375 0
-120 -376 0
-113 -297 0
-114 -298 0
-115 -299 0
-116 -300 0
-117 -301 0
-118 -302 0
-119 -303 0
-120 -304 0
-113 -177 0
-114 -178 0
-115 -179 0
-116 -180 0
-117 -181 0
-118 -182 0
-119 -183 0
-120 -184 0
-121 -345 0
-122 -346 0
-123 -347 0
-124 -348 0
-125 -349 0
-126 -350 0
-127 -351 0
-128 -352 0
-121 -385 0
-122 -386 0
-123 -387 0
-124 -388 0
-125 -389 0
-126 -390 0
-127 -391 0
-128 -392 0
-121 -321 0
-122 -322 0
-123 -323 0
-124 -324 0
-125 -325 0
-126 -326 0
-127 -327 0
-128 -328 0
-121 -353 0
-122 -354 0
-123 -355 0
-124 -356 0
-125 -357 0
-126 -358 0
-127 -359 0
-128 -360 0
-121 -257 0
-122 -258 0
-123 -259 0
-124 -260 0
-125 -261 0
-126 -262 0
-127 -263 0
-128 -264 0
-121 -369 0
-122 -370 0
-123 -371 0
-124 -372 0
-125 -373 0
-126 -374 0
-127 -375 0
-128 -376 0
-121 -297 0
-122 -298 0
-123 -299 0
-124 -300 0
-125 -301 0
-126 -302 0
-127 -303 0
-128 -304 0
-121 -177 0
-122 -178 0
-123 -179 0
-124 -180 0
-125 -181 0
-126 -182 0
-127 -183 0
-128 -184 0
-121 -161 0
-122 -162 0
-123 -163 0
-124 -164 0
-125 -165 0
-126 -166 0
-127 -167 0
-128 -168 0
-121 -201 0
-122 -202 0
-123 -203 0
-124 -204 0
-125 -205 0
-126 -206 0
-127 -207 0
-128 -208 0
-121 -273 0
-122 -274 0
-123 -275 0
-124 -276 0
-125 -277 0
-126 -278 0
-127 -279 0
-128 -280 0
-129 -225 0
-130 -226 0
-131 -227 0
-132 -228 0
-133 -229 0
-134 -230 0
-135 -231 0
-136 -232 0
-129 -345 0
-130 -346 0
-131 -347 0
-132 -348 0
-133 -349 0
-134 -350 0
-135 -351 0
-136 -352 0
-129 -265 0
-130 -266 0
-131 -267 0
-132 -268 0
-133 -269 0
-134 -270 0
-135 -271 0
-136 -272 0
-129 -137 0
-130 -138 0
-131 -139 0
-132 -140 0
-133 -141 0
-134 -142 0
-135 -143 0
-136 -144 0
-129 -385 0
-130 -386 0
-131 -387 0
-132 -388 0
-133 -389 0
-134 -390 0
-135 -391 0
-136 -392 0
-129 -321 0
-130 -322 0
-131 -323 0
-132 -324 0
-133 -325 0
-134 -326 0
-135 -327 0
-136 -328 0
-129 -233 0
-130 -234 0
-131 -235 0
-132 -236 0
-133 -237 0
-134 -238 0
-135 -239 0
-136 -240 0
-129 -377 0
-130 -378 0
-131 -379 0
-132 -380 0
-133 -381 0
-134 -382 0
-135 -383 0
-136 -384 0
-129 -209 0
-130 -210 0
-131 -211 0
-132 -212 0
-133 -213 0
-134 -214 0
-135 -215 0
-136 -216 0
-129 -169 0
-130 -170 0
-131 -171 0
-132 -172 0
-133 -173 0
-134 -174 0
-135 -175 0
-136 -176 0
-137 -217 0
-138 -218 0
-139 -219 0
-140 -220 0
-141 -221 0
-142 -222 0
-143 -223 0
-144 -224 0
-137 -305 0
-138 -306 0
-139 -307 0
-140 -308 0
-141 -309 0
-142 -310 0
-143 -311 0
-144 -312 0
-137 -265 0
-138 -266 0
-139 -267 0
-140 -268 0
-141 -269 0
-142 -270 0
-143 -271 0
-144 -272 0
-137 -233 0
-138 -234 0
-139 -235 0
-140 -236 0
-141 -237 0
-142 -238 0
-143 -239 0
-144 -240 0
-137 -153 0
-138 -154 0
-139 -155 0
-140 -156 0
-141 -157 0
-142 -158 0
-143 -159 0
-144 -160 0
-137 -385 0
-138 -386 0
-139 -387 0
-140 -388 0
-141 -389 0
-142 -390 0
-143 -391 0
-144 -392 0
-137 -377 0
-138 -378 0
-139 -379 0
-140 -380 0
-141 -381 0
-142 -382 0
-143 -383 0
-144 -384 0
-137 -257 0
-138 -258 0
-139 -259 0
-140 -260 0
-141 -261 0
-142 -262 0
-143 -263 0
-144 -264 0
-137 -169 0
-138 -170 0
-139 -171 0
-140 -172 0
-141 -173 0
-142 -174 0
-143 -175 0
-144 -176 0
-145 -289 0
-146 -290 0
-147 -291 0
-148 -292 0
-149 -293 0
-150 -294 0
-151 -295 0
-152 -296 0
-145 -225 0
-146 -226 0
-147 -227 0
-148 -228 0
-149 -229 0
-150 -230 0
-151 -231 0
-152 -232 0
-145 -185 0
-146 -186 0
-147 -187 0
-148 -188 0
-149 -189 0
-150 -190 0
-151 -191 0
-152 -192 0
-145 -193 0
-146 -194 0
-147 -195 0
-148 -196 0
-149 -197 0
-150 -198 0
-151 -199 0
-152 -200 0
-145 -249 0
-146 -250 0
-147 -251 0
-148 -252 0
-149 -253 0
-150 -254 0
-151 -255 0
-152 -256 0
-145 -369 0
-146 -370 0
-147 -371 0
-148 -372 0
-149 -373 0
-150 -374 0
-151 -375 0
-152 -376 0
-145 -361 0
-146 -362 0
-147 -363 0
-148 -364 0
-149 -365 0
-150 -366 0
-151 -367 0
-152 -368 0
-145 -281 0
-146 -282 0
-147 -283 0
-148 -284 0
-149 -285 0
-150 -286 0
-151 -287 0
-152 -288 0
-145 -273 0
-146 -274 0
-147 -275 0
-148 -276 0
-149 -277 0
-150 -278 0
-151 -279 0
-152 -280 0
-145 -241 0
-146 -242 0
-147 -243 0
-148 -244 0
-149 -245 0
-150 -246 0
-151 -247 0
-152 -248 0
-145 -177 0
-146 -178 0
-147 -179 0
-148 -180 0
-149 -181 0
-150 -182 0
-151 -183 0
-152 -184 0
-145 -161 0
-146 -162 0
-147 -163 0
-148 -164 0
-149 -165 0
-150 -166 0
-151 -167 0
-152 -168 0
-153 -217 0
-154 -218 0
-155 -219 0
-156 -220 0
-157 -221 0
-158 -222 0
-159 -223 0
-160 -224 0
-153 -305 0
-154 -306 0
-155 -307 0
-156 -308 0
-157 -309 0
-158 -310 0
-159 -311 0
-160 -312 0
-153 -337 0
-154 -338 0
-155 -339 0
-156 -340 0
-157 -341 0
-158 -342 0
-159 -343 0
-160 -344 0
-153 -265 0
-154 -266 0
-155 -267 0
-156 -268 0
-157 -269 0
-158 -270 0
-159 -271 0
-160 -272 0
-153 -233 0
-154 -234 0
-155 -235 0
-156 -236 0
-157 -237 0
-158 -238 0
-159 -239 0
-160 -240 0
-153 -377 0
-154 -378 0
-155 -379 0
-156 -380 0
-157 -381 0
-158 -382 0
-159 -383 0
-160 -384 0
-153 -257 0
-154 -258 0
-155 -259 0
-156 -260 0
-157 -261 0
-158 -262 0
-159 -263 0
-160 -264 0
-153 -169 0
-154 -170 0
-155 -171 0
-156 -172 0
-157 -173 0
-158 -174 0
-159 -175 0
-160 -176 0
-153 -329 0
-154 -330 0
-155 -331 0
-156 -332 0
-157 -333 0
-158 -334 0
-159 -335 0
-160 -336 0
-161 -313 0
-162 -314 0
-163 -315 0
-164 -316 0
-165 -317 0
-166 -318 0
-167 -319 0
-168 -320 0
-161 -353 0
-162 -354 0
-163 -355 0
-164 -356 0
-165 -357 0
-166 -358 0
-167 -359 0
-168 -360 0
-161 -193 0
-162 -194 0
-163 -195 0
-164 -196 0
-165 -197 0
-166 -198 0
-167 -199 0
-168 -200 0
-161 -369 0
-162 -370 0
-163 -371 0
-164 -372 0
-165 -373 0
-166 -374 0
-167 -375 0
-168 -376 0
-161 -297 0
-162 -298 0
-163 -299 0
-164 -300 0
-165 -301 0
-166 -302 0
-167 -303 0
-168 -304 0
-161 -177 0
-162 -178 0
-163 -179 0
-164 -180 0
-165 -181 0
-166 -182 0
-167 -183 0
-168 -184 0
-161 -201 0
-162 -202 0
-163 -203 0
-164 -204 0
-165 -205 0
-166 -206 0
-167 -207 0
-168 -208 0
-161 -273 0
-162 -274 0
-163 -275 0
-164 -276 0
-165 -277 0
-166 -278 0
-167 -279 0
-168 -280 0
-161 -241 0
-162 -242 0
-163 -243 0
-164 -244 0
-165 -245 0
-166 -246 0
-167 -247 0
-168 -248 0
-169 -305 0
-170 -306 0
-171 -307 0
-172 -308 0
-173 -309 0
-174 -310 0
-175 -311 0
-176 -312 0
-169 -289 0
-170 -290 0
-171 -291 0
-172 -292 0
-173 -293 0
-174 -294 0
-175 -295 0
-176 -296 0
-169 -225 0
-170 -226 0
-171 -227 0
-172 -228 0
-173 -229 0
-174 -230 0
-175 -231 0
-176 -232 0
-169 -185 0
-170 -186 0
-171 -187 0
-172 -188 0
-173 -189 0
-174 -190 0
-175 -191 0
-176 -192 0
-169 -233 0
-170 -234 0
-171 -235 0
-172 -236 0
-173 -237 0
-174 -238 0
-175 -239 0
-176 -240 0
-169 -377 0
-170 -378 0
-171 -379 0
-172 -380 0
-173 -381 0
-174 -382 0
-175 -383 0
-176 -384 0
-169 -249 0
-170 -250 0
-171 -251 0
-172 -252 0
-173 -253 0
-174 -254 0
-175 -255 0
-176 -256 0
-169 -209 0
-170 -210 0
-171 -211 0
-172 -212 0
-173 -213 0
-174 -214 0
-175 -215 0
-176 -216 0
-169 -281 0
-170 -282 0
-171 -283 0
-172 -284 0
-173 -285 0
-174 -286 0
-175 -287 0
-176 -288 0
-169 -329 0
-170 -330 0
-171 -331 0
-172 -332 0
-173 -333 0
-174 -334 0
-175 -335 0
-176 -336 0
-177 -345 0
-178 -346 0
-179 -347 0
-180 -348 0
-181 -349 0
-182 -350 0
-183 -351 0
-184 -352 0
-177 -321 0
-178 -322 0
-179 -323 0
-180 -324 0
-181 -325 0
-182 -326 0
-183 -327 0
-184 -328 0
-177 -353 0
-178 -354 0
-179 -355 0
-180 -356 0
-181 -357 0
-182 -358 0
-183 -359 0
-184 -360 0
-177 -369 0
-178 -370 0
-179 -371 0
-180 -372 0
-181 -373 0
-182 -374 0
-183 -375 0
-184 -376 0
-177 -297 0
-178 -298 0
-179 -299 0
-180 -300 0
-181 -301 0
-182 -302 0
-183 -303 0
-184 -304 0
-177 -361 0
-178 -362 0
-179 -363 0
-180 -364 0
-181 -365 0
-182 -366 0
-183 -367 0
-184 -368 0
-177 -273 0
-178 -274 0
-179 -275 0
-180 -276 0
-181 -277 0
-182 -278 0
-183 -279 0
-184 -280 0
-177 -201 0
-178 -202 0
-179 -203 0
-180 -204 0
-181 -205 0
-182 -206 0
-183 -207 0
-184 -208 0
-177 -241 0
-178 -242 0
-179 -243 0
-180 -244 0
-181 -245 0
-182 -246 0
-183 -247 0
-184 -248 0
-185 -289 0
-186 -290 0
-187 -291 0
-188 -292 0
-189 -293 0
-190 -294 0
-191 -295 0
-192 -296 0
-185 -225 0
-186 -226 0
-187 -227 0
-188 -228 0
-189 -229 0
-190 -230 0
-191 -231 0
-192 -232 0
-185 -281 0
-186 -282 0
-187 -283 0
-188 -284 0
-189 -285 0
-190 -286 0
-191 -287 0
-192 -288 0
-185 -377 0
-186 -378 0
-187 -379 0
-188 -380 0
-189 -381 0
-190 -382 0
-191 -383 0
-192 -384 0
-185 -249 0
-186 -250 0
-187 -251 0
-188 -252 0
-189 -253 0
-190 -254 0
-191 -255 0
-192 -256 0
-185 -361 0
-186 -362 0
-187 -363 0
-188 -364 0
-189 -365 0
-190 -366 0
-191 -367 0
-192 -368 0
-185 -209 0
-186 -210 0
-187 -211 0
-188 -212 0
-189 -213 0
-190 -214 0
-191 -215 0
-192 -216 0
-185 -329 0
-186 -330 0
-187 -331 0
-188 -332 0
-189 -333 0
-190 -334 0
-191 -335 0
-192 -336 0
-185 -241 0
-186 -242 0
-187 -243 0
-188 -244 0
-189 -245 0
-190 -246 0
-191 -247 0
-192 -248 0
-193 -305 0
-194 -306 0
-195 -307 0
-196 -308 0
-197 -309 0
-198 -310 0
-199 -311 0
-200 -312 0
-193 -337 0
-194 -338 0
-195 -339 0
-196 -340 0
-197 -341 0
-198 -342 0
-199 -343 0
-200 -344 0
-193 -313 0
-194 -314 0
-195 -315 0
-196 -316 0
-197 -317 0
-198 -318 0
-199 -319 0
-200 -320 0
-193 -353 0
-194 -354 0
-195 -355 0
-196 -356 0
-197 -357 0
-198 -358 0
-199 -359 0
-200 -360 0
-193 -249 0
-194 -250 0
-195 -251 0
-196 -252 0
-197 -253 0
-198 -254 0
-199 -255 0
-200 -256 0
-193 -369 0
-194 -370 0
-195 -371 0
-196 -372 0
-197 -373 0
-198 -374 0
-199 -375 0
-200 -376 0
-193 -241 0
-194 -242 0
-195 -243 0
-196 -244 0
-197 -245 0
-198 -246 0
-199 -247 0
-200 -248 0
-193 -281 0
-194 -282 0
-195 -283 0
-196 -284 0
-197 -285 0
-198 -286 0
-199 -287 0
-200 -288 0
-193 -329 0
-194 -330 0
-195 -331 0
-196 -332 0
-197 -333 0
-198 -334 0
-199 -335 0
-200 -336 0
-201 -217 0
-202 -218 0
-203 -219 0
-204 -220 0
-205 -221 0
-206 -222 0
-207 -223 0
-208 -224 0
-201 -385 0
-202 -386 0
-203 -387 0
-204 -388 0
-205 -389 0
-206 -390 0
-207 -391 0
-208 -392 0
-201 -321 0
-202 -322 0
-203 -323 0
-204 -324 0
-205 -325 0
-206 -326 0
-207 -327 0
-208 -328 0
-201 -313 0
-202 -314 0
-203 -315 0
-204 -316 0
-205 -317 0
-206 -318 0
-207 -319 0
-208 -320 0
-201 -353 0
-202 -354 0
-203 -355 0
-204 -356 0
-205 -357 0
-206 -358 0
-207 -359 0
-208 -360 0
-201 -257 0
-202 -258 0
-203 -259 0
-204 -260 0
-205 -261 0
-206 -262 0
-207 -263 0
-208 -264 0
-201 -297 0
-202 -298 0
-203 -299 0
-204 -300 0
-205 -301 0
-206 -302 0
-207 -303 0
-208 -304 0
-209 -289 0
-210 -290 0
-211 -291 0
-212 -292 0
-213 -293 0
-214 -294 0
-215 -295 0
-216 -296 0
-209 -225 0
-210 -226 0
-211 -227 0
-212 -228 0
-213 -229 0
-214 -230 0
-215 -231 0
-216 -232 0
-209 -345 0
-210 -346 0
-211 -347 0
-212 -348 0
-213 -349 0
-214 -350 0
-215 -351 0
-216 -352 0
-209 -265 0
-210 -266 0
-211 -267 0
-212 -268 0
-213 -269 0
-214 -270 0
-215 -271 0
-216 -272 0
-209 -233 0
-210 -234 0
-211 -235 0
-212 -236 0
-213 -237 0
-214 -238 0
-215 -239 0
-216 -240 0
-209 -377 0
-210 -378 0
-211 -379 0
-212 -380 0
-213 -381 0
-214 -382 0
-215 -383 0
-216 -384 0
-209 -361 0
-210 -362 0
-211 -363 0
-212 -364 0
-213 -365 0
-214 -366 0
-215 -367 0
-216 -368 0
-217 -305 0
-218 -306 0
-219 -307 0
-220 -308 0
-221 -309 0
-222 -310 0
-223 -311 0
-224 -312 0
-217 -257 0
-218 -258 0
-219 -259 0
-220 -260 0
-221 -261 0
-222 -262 0
-223 -263 0
-224 -264 0
-217 -337 0
-218 -338 0
-219 -339 0
-220 -340 0
-221 -341 0
-222 -342 0
-223 -343 0
-224 -344 0
-217 -265 0
-218 -266 0
-219 -267 0
-220 -268 0
-221 -269 0
-222 -270 0
-223 -271 0
-224 -272 0
-217 -385 0
-218 -386 0
-219 -387 0
-220 -388 0
-221 -389 0
-222 -390 0
-223 -391 0
-224 -392 0
-217 -233 0
-218 -234 0
-219 -235 0
-220 -236 0
-221 -237 0
-222 -238 0
-223 -239 0
-224 -240 0
-217 -313 0
-218 -314 0
-219 -315 0
-220 -316 0
-221 -317 0
-222 -318 0
-223 -319 0
-224 -320 0
-217 -329 0
-218 -330 0
-219 -331 0
-220 -332 0
-221 -333 0
-222 -334 0
-223 -335 0
-224 -336 0
-225 -289 0
-226 -290 0
-227 -291 0
-228 -292 0
-229 -293 0
-230 -294 0
-231 -295 0
-232 -296 0
-225 -361 0
-226 -362 0
-227 -363 0
-228 -364 0
-229 -365 0
-230 -366 0
-231 -367 0
-232 -368 0
-225 -345 0
-226 -346 0
-227 -347 0
-228 -348 0
-229 -349 0
-230 -350 0
-231 -351 0
-232 -352 0
-225 -377 0
-226 -378 0
-227 -379 0
-228 -380 0
-229 -381 0
-230 -382 0
-231 -383 0
-232 -384 0
-225 -281 0
-226 -282 0
-227 -283 0
-228 -284 0
-229 -285 0
-230 -286 0
-231 -287 0
-232 -288 0
-225 -273 0
-226 -274 0
-227 -275 0
-228 -276 0
-229 -277 0
-230 -278 0
-231 -279 0
-232 -280 0
-233 -265 0
-234 -266 0
-235 -267 0
-236 -268 0
-237 -269 0
-238 -270 0
-239 -271 0
-240 -272 0
-233 -385 0
-234 -386 0
-235 -387 0
-236 -388 0
-237 -389 0
-238 -390 0
-239 -391 0
-240 -392 0
-233 -377 0
-234 -378 0
-235 -379 0
-236 -380 0
-237 -381 0
-238 -382 0
-239 -383 0
-240 -384 0
-241 -289 0
-242 -290 0
-243 -291 0
-244 -292 0
-245 -293 0
-246 -294 0
-247 -295 0
-248 -296 0
-241 -337 0
-242 -338 0
-243 -339 0
-244 -340 0
-245 -341 0
-246 -342 0
-247 -343 0
-248 -344 0
-241 -313 0
-242 -314 0
-243 -315 0
-244 -316 0
-245 -317 0
-246 -318 0
-247 -319 0
-248 -320 0
-241 -353 0
-242 -354 0
-243 -355 0
-244 -356 0
-245 -357 0
-246 -358 0
-247 -359 0
-248 -360 0
-241 -249 0
-242 -250 0
-243 -251 0
-244 -252 0
-245 -253 0
-246 -254 0
-247 -255 0
-248 -256 0
-241 -369 0
-242 -370 0
-243 -371 0
-244 -372 0
-245 -373 0
-246 -374 0
-247 -375 0
-248 -376 0
-241 -361 0
-242 -362 0
-243 -363 0
-244 -364 0
-245 -365 0
-246 -366 0
-247 -367 0
-248 -368 0
-241 -281 0
-242 -282 0
-243 -283 0
-244 -284 0
-245 -285 0
-246 -286 0
-247 -287 0
-248 -288 0
-241 -273 0
-242 -274 0
-243 -275 0
-244 -276 0
-245 -277 0
-246 -278 0
-247 -279 0
-248 -280 0
-241 -329 0
-242 -330 0
-243 -331 0
-244 -332 0
-245 -333 0
-246 -334 0
-247 -335 0
-248 -336 0
-249 -305 0
-250 -306 0
-251 -307 0
-252 -308 0
-253 -309 0
-254 -310 0
-255 -311 0
-256 -312 0
-249 -289 0
-250 -290 0
-251 -291 0
-252 -292 0
-253 -293 0
-254 -294 0
-255 -295 0
-256 -296 0
-249 -337 0
-250 -338 0
-251 -339 0
-252 -340 0
-253 -341 0
-254 -342 0
-255 -343 0
-256 -344 0
-249 -313 0
-250 -314 0
-251 -315 0
-252 -316 0
-253 -317 0
-254 -318 0
-255 -319 0
-256 -320 0
-249 -353 0
-250 -354 0
-251 -355 0
-252 -356 0
-253 -357 0
-254 -358 0
-255 -359 0
-256 -360 0
-249 -281 0
-250 -282 0
-251 -283 0
-252 -284 0
-253 -285 0
-254 -286 0
-255 -287 0
-256 -288 0
-249 -329 0
-250 -330 0
-251 -331 0
-252 -332 0
-253 -333 0
-254 -334 0
-255 -335 0
-256 -336 0
-249 -369 0
-250 -370 0
-251 -371 0
-252 -372 0
-253 -373 0
-254 -374 0
-255 -375 0
-256 -376 0
-257 -305 0
-258 -306 0
-259 -307 0
-260 -308 0
-261 -309 0
-262 -310 0
-263 -311 0
-264 -312 0
-257 -337 0
-258 -338 0
-259 -339 0
-260 -340 0
-261 -341 0
-262 -342 0
-263 -343 0
-264 -344 0
-257 -265 0
-258 -266 0
-259 -267 0
-260 -268 0
-261 -269 0
-262 -270 0
-263 -271 0
-264 -272 0
-257 -385 0
-258 -386 0
-259 -387 0
-260 -388 0
-261 -389 0
-262 -390 0
-263 -391 0
-264 -392 0
-257 -313 0
-258 -314 0
-259 -315 0
-260 -316 0
-261 -317 0
-262 -318 0
-263 -319 0
-264 -320 0
-257 -353 0
-258 -354 0
-259 -355 0
-260 -356 0
-261 -357 0
-262 -358 0
-263 -359 0
-264 -360 0
-265 -345 0
-266 -346 0
-267 -347 0
-268 -348 0
-269 -349 0
-270 -350 0
-271 -351 0
-272 -352 0
-265 -385 0
-266 -386 0
-267 -387 0
-268 -388 0
-269 -389 0
-270 -390 0
-271 -391 0
-272 -392 0
-265 -321 0
-266 -322 0
-267 -323 0
-268 -324 0
-269 -325 0
-270 -326 0
-271 -327 0
-272 -328 0
-265 -377 0
-266 -378 0
-267 -379 0
-268 -380 0
-269 -381 0
-270 -382 0
-271 -383 0
-272 -384 0
-273 -289 0
-274 -290 0
-275 -291 0
-276 -292 0
-277 -293 0
-278 -294 0
-279 -295 0
-280 -296 0
-273 -345 0
-274 -346 0
-275 -347 0
-276 -348 0
-277 -349 0
-278 -350 0
-279 -351 0
-280 -352 0
-273 -369 0
-274 -370 0
-275 -371 0
-276 -372 0
-277 -373 0
-278 -374 0
-279 -375 0
-280 -376 0
-273 -297 0
-274 -298 0
-275 -299 0
-276 -300 0
-277 -301 0
-278 -302 0
-279 -303 0
-280 -304 0
-273 -361 0
-274 -362 0
-275 -363 0
-276 -364 0
-277 -365 0
-278 -366 0
-279 -367 0
-280 -368 0
-273 -281 0
-274 -282 0
-275 -283 0
-276 -284 0
-277 -285 0
-278 -286 0
-279 -287 0
-280 -288 0
-281 -289 0
-282 -290 0
-283 -291 0
-284 -292 0
-285 -293 0
-286 -294 0
-287 -295 0
-288 -296 0
-281 -337 0
-282 -338 0
-283 -339 0
-284 -340 0
-285 -341 0
-286 -342 0
-287 -343 0
-288 -344 0
-281 -369 0
-282 -370 0
-283 -371 0
-284 -372 0
-285 -373 0
-286 -374 0
-287 -375 0
-288 -376 0
-281 -361 0
-282 -362 0
-283 -363 0
-284 -364 0
-285 -365 0
-286 -366 0
-287 -367 0
-288 -368 0
-281 -329 0
-282 -330 0
-283 -331 0
-284 -332 0
-285 -333 0
-286 -334 0
-287 -335 0
-288 -336 0
-289 -361 0
-290 -362 0
-291 -363 0
-292 -364 0
-293 -365 0
-294 -366 0
-295 -367 0
-296 -368 0
-297 -345 0
-298 -346 0
-299 -347 0
-300 -348 0
-301 -349 0
-302 -350 0
-303 -351 0
-304 -352 0
-297 -385 0
-298 -386 0
-299 -387 0
-300 -388 0
-301 -389 0
-302 -390 0
-303 -391 0
-304 -392 0
-297 -321 0
-298 -322 0
-299 -323 0
-300 -324 0
-301 -325 0
-302 -326 0
-303 -327 0
-304 -328 0
-297 -361 0
-298 -362 0
-299 -363 0
-300 -364 0
-301 -365 0
-302 -366 0
-303 -367 0
-304 -368 0
-305 -337 0
-306 -338 0
-307 -339 0
-308 -340 0
-309 -341 0
-310 -342 0
-311 -343 0
-312 -344 0
-305 -329 0
-306 -330 0
-307 -331 0
-308 -332 0
-309 -333 0
-310 -334 0
-311 -335 0
-312 -336 0
-305 -313 0
-306 -314 0
-307 -315 0
-308 -316 0
-309 -317 0
-310 -318 0
-311 -319 0
-312 -320 0
-313 -337 0
-314 -338 0
-315 -339 0
-316 -340 0
-317 -341 0
-318 -342 0
-319 -343 0
-320 -344 0
-313 -353 0
-314 -354 0
-315 -355 0
-316 -356 0
-317 -357 0
-318 -358 0
-319 -359 0
-320 -360 0
-313 -369 0
-314 -370 0
-315 -371 0
-316 -372 0
-317 -373 0
-318 -374 0
-319 -375 0
-320 -376 0
-313 -329 0
-314 -330 0
-315 -331 0
-316 -332 0
-317 -333 0
-318 -334 0
-319 -335 0
-320 -336 0
-321 -345 0
-322 -346 0
-323 -347 0
-324 -348 0
-325 -349 0
-326 -350 0
-327 -351 0
-328 -352 0
-321 -385 0
-322 -386 0
-323 -387 0
-324 -388 0
-325 -389 0
-326 -390 0
-327 -391 0
-328 -392 0
-329 -337 0
-330 -338 0
-331 -339 0
-332 -340 0
-333 -341 0
-334 -342 0
-335 -343 0
-336 -344 0
-337 -353 0
-338 -354 0
-339 -355 0
-340 -356 0
-341 -357 0
-342 -358 0
-343 -359 0
-344 -360 0
-337 -369 0
-338 -370 0
-339 -371 0
-340 -372 0
-341 -373 0
-342 -374 0
-343 -375 0
-344 -376 0
-345 -385 0
-346 -386 0
-347 -387 0
-348 -388 0
-349 -389 0
-350 -390 0
-351 -391 0
-352 -392 0
-345 -361 0
-346 -362 0
-347 -363 0
-348 -364 0
-349 -365 0
-350 -366 0
-351 -367 0
-352 -368 0
-353 -369 0
-354 -370 0
-355 -371 0
-356 -372 0
-357 -373 0
-358 -374 0
-359 -375 0
-360 -376 0
1 2 3 4 5 6 7 8 0
9 10 11 12 13 14 15 16 0
17 18 19 20 21 22 23 24 0
25 26 27 28 29 30 31 32 0
33 34 35 36 37 38 39 40 0
41 42 43 44 45 46 47 48 0
49 50 51 52 53 54 55 56 0
57 58 59 60 61 62 63 64 0
65 66 67 68 69 70 71 72 0
73 74 75 76 77 78 79 80 0
81 82 83 84 85 86 87 88 0
89 90 91 92 93 94 95 96 0
97 98 99 100 101 102 103 104 0
105 106 107 108 109 110 111 112 0
113 114 115 116 117 118 119 120 0
121 122 123 124 125 126 127 128 0
129 130 131 132 133 134 135 136 0
137 138 139 140 141 142 143 144 0
145 146 147 148 149 150 151 152 0
153 154 155 156 157 158 159 160 0
161 162 163 164 165 166 167 168 0
169 170 171 172 173 174 175 176 0
177 178 179 180 181 182 183 184 0
185 186 187 188 189 190 191 192 0
193 194 195 196 197 198 199 200 0
201 202 203 204 205 206 207 208 0
209 210 211 212 213 214 215 216 0
217 218 219 220 221 222 223 224 0
225 226 227 228 229 230 231 232 0
233 234 235 236 237 238 239 240 0
241 242 243 244 245 246 247 248 0
249 250 251 252 253 254 255 256 0
257 258 259 260 261 262 263 264 0
265 266 267 268 269 270 271 272 0
273 274 275 276 277 278 279 280 0
281 282 283 284 285 286 287 288 0
289 290 291 292 293 294 295 296 0
297 298 299 300 301 302 303 304 0
305 306 307 308 309 310 311 312 0
313 314 315 316 317 318 319 320 0
321 322 323 324 325 326 327 328 0
329 330 331 332 333 334 335 336 0
337 338 339 340 341 342 343 344 0
345 346 347 348 349 350 351 352 0
353 354 355 356 357 358 359 360 0
361 362 363 364 365 366 367 368 0
369 370 371 372 373 374 375 376 0
377 378 379 380 381 382 383 384 0
385 386 387 388 389 390 391 392 0
